Minimize
  obj: -1.0000000000000000e+00 x30 - 1.0000000000000000e+00 x31 - 1.0000000000000000e+00 x32 - 1.0000000000000000e+00 x33 - 1.0000000000000000e+00 x34
	 - 1.0000000000000000e+00 x35 - 1.0000000000000000e+00 x36 - 1.0000000000000000e+00 x37 - 1.0000000000000000e+00 x38 - 1.0000000000000000e+00 x39
	 - 1.0000000000000000e+00 x40 - 1.0000000000000000e+00 x41 - 1.0000000000000000e+00 x42 - 1.0000000000000000e+00 x43 - 1.0000000000000000e+00 x44
	 - 1.0000000000000000e+00 x45 - 1.0000000000000000e+00 x46 - 1.0000000000000000e+00 x47 - 1.0000000000000000e+00 x48 - 1.0000000000000000e+00 x49
	 - 1.0000000000000000e+00 x50 - 1.0000000000000000e+00 x51 - 1.0000000000000000e+00 x52 - 1.0000000000000000e+00 x53 - 1.0000000000000000e+00 x54
	 - 1.0000000000000000e+00 x55 - 1.0000000000000000e+00 x56 - 1.0000000000000000e+00 x57 - 1.0000000000000000e+00 x58 - 1.0000000000000000e+00 x59
	 - 1.0000000000000000e+00 x60 - 1.0000000000000000e+00 x61 - 1.0000000000000000e+00 x62 - 1.0000000000000000e+00 x63 - 1.0000000000000000e+00 x64
	 - 1.0000000000000000e+00 x65 - 1.0000000000000000e+00 x66 - 1.0000000000000000e+00 x67 - 1.0000000000000000e+00 x68 - 1.0000000000000000e+00 x69
	 - 1.0000000000000000e+00 x70 - 1.0000000000000000e+00 x71 - 1.0000000000000000e+00 x72 - 1.0000000000000000e+00 x73 - 1.0000000000000000e+00 x74
	 - 1.0000000000000000e+00 x75 - 1.0000000000000000e+00 x76 - 1.0000000000000000e+00 x77 - 1.0000000000000000e+00 x78 - 1.0000000000000000e+00 x79
	 - 1.0000000000000000e+00 x80 - 1.0000000000000000e+00 x81 - 1.0000000000000000e+00 x82 - 1.0000000000000000e+00 x83 - 1.0000000000000000e+00 x84
	 - 1.0000000000000000e+00 x85 - 1.0000000000000000e+00 x86 - 1.0000000000000000e+00 x87 - 1.0000000000000000e+00 x88 - 1.0000000000000000e+00 x89
	 - 1.0000000000000000e+00 x90 - 1.0000000000000000e+00 x91 - 1.0000000000000000e+00 x92 - 1.0000000000000000e+00 x93 - 1.0000000000000000e+00 x94
	 - 1.0000000000000000e+00 x95 - 1.0000000000000000e+00 x96 - 1.0000000000000000e+00 x97 - 1.0000000000000000e+00 x98 - 1.0000000000000000e+00 x99
	 - 1.0000000000000000e+00 x100 - 1.0000000000000000e+00 x101 - 1.0000000000000000e+00 x102 - 1.0000000000000000e+00 x103 - 1.0000000000000000e+00 x104
	 - 1.0000000000000000e+00 x105 - 1.0000000000000000e+00 x106 - 1.0000000000000000e+00 x107 - 1.0000000000000000e+00 x108 - 1.0000000000000000e+00 x109
	 - 1.0000000000000000e+00 x110 - 1.0000000000000000e+00 x111 - 1.0000000000000000e+00 x112 - 1.0000000000000000e+00 x113 - 1.0000000000000000e+00 x114
	 - 1.0000000000000000e+00 x115 - 1.0000000000000000e+00 x116 - 1.0000000000000000e+00 x117 - 1.0000000000000000e+00 x118 - 1.0000000000000000e+00 x119
	 - 1.0000000000000000e+00 x120 - 1.0000000000000000e+00 x121 - 1.0000000000000000e+00 x122 - 1.0000000000000000e+00 x123 - 1.0000000000000000e+00 x124
	 - 1.0000000000000000e+00 x125 - 1.0000000000000000e+00 x126 - 1.0000000000000000e+00 x127 - 1.0000000000000000e+00 x128 - 1.0000000000000000e+00 x129
	 - 1.0000000000000000e+00 x130 - 1.0000000000000000e+00 x131 - 1.0000000000000000e+00 x132 - 1.0000000000000000e+00 x133 - 1.0000000000000000e+00 x134
	 - 1.0000000000000000e+00 x135 - 1.0000000000000000e+00 x136 - 1.0000000000000000e+00 x137 - 1.0000000000000000e+00 x138 - 1.0000000000000000e+00 x139
Subject To
Bounds
  x0 <= 1.0000000000000000e+00
  x1 <= 1.0000000000000000e+00
  x2 <= 1.0000000000000000e+00
  x3 <= 1.0000000000000000e+00
  x4 <= 1.0000000000000000e+00
  x5 <= 1.0000000000000000e+00
  x6 <= 1.0000000000000000e+00
  x7 <= 1.0000000000000000e+00
  x8 <= 1.0000000000000000e+00
  x9 = -0.0000000000000000e+00
  x10 <= 1.0000000000000000e+00
  x11 <= 1.0000000000000000e+00
  x12 <= 1.0000000000000000e+00
  x13 <= 1.0000000000000000e+00
  x14 <= 1.0000000000000000e+00
  x15 <= 1.0000000000000000e+00
  x16 <= 1.0000000000000000e+00
  x17 <= 1.0000000000000000e+00
  x18 <= 1.0000000000000000e+00
  x19 <= 1.0000000000000000e+00
  x20 <= 1.0000000000000000e+00
  x21 <= 1.0000000000000000e+00
  x22 <= 1.0000000000000000e+00
  x23 <= 1.0000000000000000e+00
  x24 <= 1.0000000000000000e+00
  x25 <= 1.0000000000000000e+00
  x26 <= 1.0000000000000000e+00
  x27 <= 1.0000000000000000e+00
  x28 <= 1.0000000000000000e+00
  x29 <= 1.0000000000000000e+00
  x30 <= 1.0000000000000000e+00
  x31 <= 1.0000000000000000e+00
  x32 <= 1.0000000000000000e+00
  x33 <= 1.0000000000000000e+00
  x34 <= 1.0000000000000000e+00
  x35 <= 1.0000000000000000e+00
  x36 <= 1.0000000000000000e+00
  x37 <= 1.0000000000000000e+00
  x38 <= 1.0000000000000000e+00
  x39 <= 1.0000000000000000e+00
  x40 <= 1.0000000000000000e+00
  x41 <= 1.0000000000000000e+00
  x42 <= 1.0000000000000000e+00
  x43 <= 1.0000000000000000e+00
  x44 <= 1.0000000000000000e+00
  x45 <= 1.0000000000000000e+00
  x46 <= 1.0000000000000000e+00
  x47 <= 1.0000000000000000e+00
  x48 <= 1.0000000000000000e+00
  x49 <= 1.0000000000000000e+00
  x50 <= 1.0000000000000000e+00
  x51 <= 1.0000000000000000e+00
  x52 <= 1.0000000000000000e+00
  x53 <= 1.0000000000000000e+00
  x54 <= 1.0000000000000000e+00
  x55 <= 1.0000000000000000e+00
  x56 <= 1.0000000000000000e+00
  x57 <= 1.0000000000000000e+00
  x58 <= 1.0000000000000000e+00
  x59 <= 1.0000000000000000e+00
  x60 <= 1.0000000000000000e+00
  x61 <= 1.0000000000000000e+00
  x62 <= 1.0000000000000000e+00
  x63 <= 1.0000000000000000e+00
  x64 <= 1.0000000000000000e+00
  x65 <= 1.0000000000000000e+00
  x66 <= 1.0000000000000000e+00
  x67 <= 1.0000000000000000e+00
  x68 <= 1.0000000000000000e+00
  x69 <= 1.0000000000000000e+00
  x70 <= 1.0000000000000000e+00
  x71 <= 1.0000000000000000e+00
  x72 <= 1.0000000000000000e+00
  x73 <= 1.0000000000000000e+00
  x74 <= 1.0000000000000000e+00
  x75 <= 1.0000000000000000e+00
  x76 <= 1.0000000000000000e+00
  x77 <= 1.0000000000000000e+00
  x78 <= 1.0000000000000000e+00
  x79 <= 1.0000000000000000e+00
  x80 <= 1.0000000000000000e+00
  x81 <= 1.0000000000000000e+00
  x82 <= 1.0000000000000000e+00
  x83 <= 1.0000000000000000e+00
  x84 <= 1.0000000000000000e+00
  x85 <= 1.0000000000000000e+00
  x86 <= 1.0000000000000000e+00
  x87 <= 1.0000000000000000e+00
  x88 <= 1.0000000000000000e+00
  x89 <= 1.0000000000000000e+00
  x90 <= 1.0000000000000000e+00
  x91 <= 1.0000000000000000e+00
  x92 <= 1.0000000000000000e+00
  x93 <= 1.0000000000000000e+00
  x94 <= 1.0000000000000000e+00
  x95 <= 1.0000000000000000e+00
  x96 <= 1.0000000000000000e+00
  x97 <= 1.0000000000000000e+00
  x98 <= 1.0000000000000000e+00
  x99 <= 1.0000000000000000e+00
  x100 <= 1.0000000000000000e+00
  x101 <= 1.0000000000000000e+00
  x102 <= 1.0000000000000000e+00
  x103 <= 1.0000000000000000e+00
  x104 <= 1.0000000000000000e+00
  x105 <= 1.0000000000000000e+00
  x106 <= 1.0000000000000000e+00
  x107 <= 1.0000000000000000e+00
  x108 <= 1.0000000000000000e+00
  x109 <= 1.0000000000000000e+00
  x110 <= 1.0000000000000000e+00
  x111 <= 1.0000000000000000e+00
  x112 <= 1.0000000000000000e+00
  x113 <= 1.0000000000000000e+00
  x114 <= 1.0000000000000000e+00
  x115 <= 1.0000000000000000e+00
  x116 <= 1.0000000000000000e+00
  x117 <= 1.0000000000000000e+00
  x118 <= 1.0000000000000000e+00
  x119 <= 1.0000000000000000e+00
  x120 <= 1.0000000000000000e+00
  x121 <= 1.0000000000000000e+00
  x122 <= 1.0000000000000000e+00
  x123 <= 1.0000000000000000e+00
  x124 <= 1.0000000000000000e+00
  x125 <= 1.0000000000000000e+00
  x126 <= 1.0000000000000000e+00
  x127 <= 1.0000000000000000e+00
  x128 <= 1.0000000000000000e+00
  x129 <= 1.0000000000000000e+00
  x130 <= 1.0000000000000000e+00
  x131 <= 1.0000000000000000e+00
  x132 <= 1.0000000000000000e+00
  x133 <= 1.0000000000000000e+00
  x134 <= 1.0000000000000000e+00
  x135 <= 1.0000000000000000e+00
  x136 <= 1.0000000000000000e+00
  x137 <= 1.0000000000000000e+00
  x138 <= 1.0000000000000000e+00
  x139 <= 1.0000000000000000e+00
End
